100
1000
299
299
299
297
294
288
285
279
277
277
276
275
274
273
272
271
271
269
266
262
260
260
257
255
254
254
253
252
252
245
244
243
241
240
235
235
233
230
229
228
228
226
226
225
224
223
223
219
219
218
214
211
206
199
198
197
196
191
186
183
183
183
180
179
179
177
176
174
174
173
172
163
159
158
153
147
146
146
146
145
145
141
139
131
131
128
125
123
123
123
122
120
119
117
114
114
114
106
104
104
